# Node Net
4842   1
910   1
3990   1
  5   2
771   2
4891   2
4201   3
4892   3
141   3
4410   4
 70   4
2101   4
 14   5
 22   5
4060   5
 32   6
3921   6
700   6
1051   7
2241   7
4873   7
4481   8
560   8
3641   9
 33   9
4887  10
 36  10
4857  11
 29  11
